
Gurobi 9.1.2 (linux64) logging started Wed Nov 24 10:26:22 2021

Changed value of parameter LogFile to lemke_square_v-(6, 2).log-s20-l10.log
   Prev:   Default: 
Changed value of parameter Threads to 32
   Prev: 0  Min: 0  Max: 1024  Default: 0
Changed value of parameter TimeLimit to 3600.0
   Prev: inf  Min: 0.0  Max: inf  Default: inf
Changed value of parameter MIPGap to 0.4
   Prev: 0.0001  Min: 0.0  Max: inf  Default: 0.0001
Warning: variable name "X[(7, 4),(7, 3)]" has a space
Warning: constraint name "flow-constr-t0-v(3, 0)" has a space
Warning: to let Gurobi read it back, use rlp format
Gurobi Optimizer version 9.1.2 build v9.1.2rc0 (linux64)
Thread count: 16 physical cores, 32 logical processors, using up to 32 threads
Optimize a model with 6013 rows, 5440 columns and 20670 nonzeros
Model fingerprint: 0xd0bc2588
Variable types: 0 continuous, 5440 integer (4800 binary)
Coefficient statistics:
  Matrix range     [1e+00, 1e+03]
  Objective range  [1e-01, 1e-01]
  Bounds range     [1e+00, 5e+02]
  RHS range        [1e+00, 1e+03]
Presolve removed 517 rows and 550 columns
Presolve time: 0.04s
Presolved: 5496 rows, 4890 columns, 18270 nonzeros
Variable types: 0 continuous, 4890 integer (4250 binary)

Root relaxation: objective 6.400000e+01, 127 iterations, 0.00 seconds

    Nodes    |    Current Node    |     Objective Bounds      |     Work
 Expl Unexpl |  Obj  Depth IntInf | Incumbent    BestBd   Gap | It/Node Time

     0     0   64.00000    0   42          -   64.00000      -     -    0s
     0     0   64.00000    0   61          -   64.00000      -     -    0s
     0     0   64.00000    0   71          -   64.00000      -     -    0s
     0     0   64.00000    0   64          -   64.00000      -     -    0s
     0     0   64.00000    0   62          -   64.00000      -     -    0s
     0     0   64.00000    0   42          -   64.00000      -     -    0s
H    0     0                    3715.6000000   64.00000  98.3%     -    0s
     0     0   64.00000    0   38 3715.60000   64.00000  98.3%     -    0s
H    0     0                     112.4000000   64.00000  43.1%     -    0s
     0     2   64.00000    0   38  112.40000   64.00000  43.1%     -    0s
H   32    64                     109.5000000   64.00000  41.6%  53.7    1s
H   39    64                     109.1000000   64.00000  41.3%  53.7    1s
H   43    64                     106.6000000   64.00000  40.0%  54.6    1s

Cutting planes:
  Gomory: 3
  Cover: 132
  Implied bound: 130
  Clique: 11
  MIR: 35
  StrongCG: 1
  Flow cover: 18
  Zero half: 1
  RLT: 9
  Relax-and-lift: 41

Explored 63 nodes (6017 simplex iterations) in 1.15 seconds
Thread count was 32 (of 32 available processors)

Solution count 5: 106.6 109.1 109.5 ... 3715.6

Optimal solution found (tolerance 4.00e-01)
Best objective 1.066000000000e+02, best bound 6.400000000000e+01, gap 39.9625%

Gurobi 9.1.2 (linux64) logging started Wed Nov 24 10:31:20 2021

Changed value of parameter LogFile to lemke_square_v-(6, 2).log-s20-l10.log
   Prev:   Default: 
Changed value of parameter Threads to 32
   Prev: 0  Min: 0  Max: 1024  Default: 0
Changed value of parameter TimeLimit to 3600.0
   Prev: inf  Min: 0.0  Max: inf  Default: inf
Changed value of parameter MIPGap to 0.4
   Prev: 0.0001  Min: 0.0  Max: inf  Default: 0.0001
Warning: variable name "X[(7, 4),(7, 3)]" has a space
Warning: constraint name "flow-constr-t0-v(3, 0)" has a space
Warning: to let Gurobi read it back, use rlp format
Gurobi Optimizer version 9.1.2 build v9.1.2rc0 (linux64)
Thread count: 16 physical cores, 32 logical processors, using up to 32 threads
Optimize a model with 6013 rows, 5440 columns and 20670 nonzeros
Model fingerprint: 0xd0bc2588
Variable types: 0 continuous, 5440 integer (4800 binary)
Coefficient statistics:
  Matrix range     [1e+00, 1e+03]
  Objective range  [1e-01, 1e-01]
  Bounds range     [1e+00, 5e+02]
  RHS range        [1e+00, 1e+03]
Presolve removed 517 rows and 550 columns
Presolve time: 0.04s
Presolved: 5496 rows, 4890 columns, 18270 nonzeros
Variable types: 0 continuous, 4890 integer (4250 binary)

Root relaxation: objective 6.400000e+01, 127 iterations, 0.00 seconds

    Nodes    |    Current Node    |     Objective Bounds      |     Work
 Expl Unexpl |  Obj  Depth IntInf | Incumbent    BestBd   Gap | It/Node Time

     0     0   64.00000    0   42          -   64.00000      -     -    0s
     0     0   64.00000    0   61          -   64.00000      -     -    0s
     0     0   64.00000    0   71          -   64.00000      -     -    0s
     0     0   64.00000    0   64          -   64.00000      -     -    0s
     0     0   64.00000    0   62          -   64.00000      -     -    0s
     0     0   64.00000    0   42          -   64.00000      -     -    0s
H    0     0                    3715.6000000   64.00000  98.3%     -    0s
     0     0   64.00000    0   38 3715.60000   64.00000  98.3%     -    0s
H    0     0                     112.4000000   64.00000  43.1%     -    0s
     0     2   64.00000    0   38  112.40000   64.00000  43.1%     -    0s
H   32    64                     109.5000000   64.00000  41.6%  53.7    1s
H   39    64                     109.1000000   64.00000  41.3%  53.7    1s
H   43    64                     106.6000000   64.00000  40.0%  54.6    1s

Cutting planes:
  Gomory: 3
  Cover: 132
  Implied bound: 130
  Clique: 11
  MIR: 35
  StrongCG: 1
  Flow cover: 18
  Zero half: 1
  RLT: 9
  Relax-and-lift: 41

Explored 63 nodes (6017 simplex iterations) in 1.10 seconds
Thread count was 32 (of 32 available processors)

Solution count 5: 106.6 109.1 109.5 ... 3715.6

Optimal solution found (tolerance 4.00e-01)
Best objective 1.066000000000e+02, best bound 6.400000000000e+01, gap 39.9625%

Gurobi 9.1.2 (linux64) logging started Wed Nov 24 11:38:30 2021

Changed value of parameter LogFile to lemke_square_v-(6, 2).log-s20-l10.log
   Prev:   Default: 
Changed value of parameter Threads to 32
   Prev: 0  Min: 0  Max: 1024  Default: 0
Changed value of parameter TimeLimit to 3600.0
   Prev: inf  Min: 0.0  Max: inf  Default: inf
Changed value of parameter MIPGap to 0.34
   Prev: 0.0001  Min: 0.0  Max: inf  Default: 0.0001
Warning: variable name "X[(7, 4),(7, 3)]" has a space
Warning: constraint name "flow-constr-t0-v(3, 0)" has a space
Warning: to let Gurobi read it back, use rlp format
Gurobi Optimizer version 9.1.2 build v9.1.2rc0 (linux64)
Thread count: 16 physical cores, 32 logical processors, using up to 32 threads
Optimize a model with 6013 rows, 5440 columns and 20670 nonzeros
Model fingerprint: 0xd0bc2588
Variable types: 0 continuous, 5440 integer (4800 binary)
Coefficient statistics:
  Matrix range     [1e+00, 1e+03]
  Objective range  [1e-01, 1e-01]
  Bounds range     [1e+00, 5e+02]
  RHS range        [1e+00, 1e+03]
Presolve removed 517 rows and 550 columns
Presolve time: 0.04s
Presolved: 5496 rows, 4890 columns, 18270 nonzeros
Variable types: 0 continuous, 4890 integer (4250 binary)

Root relaxation: objective 6.400000e+01, 127 iterations, 0.00 seconds

    Nodes    |    Current Node    |     Objective Bounds      |     Work
 Expl Unexpl |  Obj  Depth IntInf | Incumbent    BestBd   Gap | It/Node Time

     0     0   64.00000    0   42          -   64.00000      -     -    0s
     0     0   64.00000    0   61          -   64.00000      -     -    0s
     0     0   64.00000    0   71          -   64.00000      -     -    0s
     0     0   64.00000    0   64          -   64.00000      -     -    0s
     0     0   64.00000    0   62          -   64.00000      -     -    0s
     0     0   64.00000    0   42          -   64.00000      -     -    0s
H    0     0                    3715.6000000   64.00000  98.3%     -    0s
     0     0   64.00000    0   38 3715.60000   64.00000  98.3%     -    0s
H    0     0                     112.4000000   64.00000  43.1%     -    0s
     0     2   64.00000    0   38  112.40000   64.00000  43.1%     -    0s
H   32    64                     109.5000000   64.00000  41.6%  53.7    1s
H   39    64                     109.1000000   64.00000  41.3%  53.7    1s
H   43    64                     106.6000000   64.00000  40.0%  54.6    1s
H   63    96                      93.8000000   64.00000  31.8%  54.0    2s

Cutting planes:
  Gomory: 3
  Cover: 132
  Implied bound: 130
  Clique: 11
  MIR: 35
  StrongCG: 1
  Flow cover: 18
  Zero half: 1
  RLT: 9
  Relax-and-lift: 41

Explored 95 nodes (7631 simplex iterations) in 2.35 seconds
Thread count was 32 (of 32 available processors)

Solution count 6: 93.8 106.6 109.1 ... 3715.6

Optimal solution found (tolerance 3.40e-01)
Best objective 9.380000000000e+01, best bound 6.400000000000e+01, gap 31.7697%

Gurobi 9.1.2 (linux64) logging started Wed Nov 24 11:39:33 2021

Changed value of parameter LogFile to lemke_square_v-(6, 2).log-s20-l10.log
   Prev:   Default: 
Changed value of parameter Threads to 32
   Prev: 0  Min: 0  Max: 1024  Default: 0
Changed value of parameter TimeLimit to 3600.0
   Prev: inf  Min: 0.0  Max: inf  Default: inf
Changed value of parameter MIPGap to 0.3
   Prev: 0.0001  Min: 0.0  Max: inf  Default: 0.0001
Warning: variable name "X[(7, 4),(7, 3)]" has a space
Warning: constraint name "flow-constr-t0-v(3, 0)" has a space
Warning: to let Gurobi read it back, use rlp format
Gurobi Optimizer version 9.1.2 build v9.1.2rc0 (linux64)
Thread count: 16 physical cores, 32 logical processors, using up to 32 threads
Optimize a model with 6013 rows, 5440 columns and 20670 nonzeros
Model fingerprint: 0xd0bc2588
Variable types: 0 continuous, 5440 integer (4800 binary)
Coefficient statistics:
  Matrix range     [1e+00, 1e+03]
  Objective range  [1e-01, 1e-01]
  Bounds range     [1e+00, 5e+02]
  RHS range        [1e+00, 1e+03]
Presolve removed 517 rows and 550 columns
Presolve time: 0.03s
Presolved: 5496 rows, 4890 columns, 18270 nonzeros
Variable types: 0 continuous, 4890 integer (4250 binary)

Root relaxation: objective 6.400000e+01, 127 iterations, 0.00 seconds

    Nodes    |    Current Node    |     Objective Bounds      |     Work
 Expl Unexpl |  Obj  Depth IntInf | Incumbent    BestBd   Gap | It/Node Time

     0     0   64.00000    0   42          -   64.00000      -     -    0s
     0     0   64.00000    0   61          -   64.00000      -     -    0s
     0     0   64.00000    0   71          -   64.00000      -     -    0s
     0     0   64.00000    0   64          -   64.00000      -     -    0s
     0     0   64.00000    0   62          -   64.00000      -     -    0s
     0     0   64.00000    0   42          -   64.00000      -     -    0s
H    0     0                    3715.6000000   64.00000  98.3%     -    0s
     0     0   64.00000    0   38 3715.60000   64.00000  98.3%     -    0s
H    0     0                     112.4000000   64.00000  43.1%     -    0s
     0     2   64.00000    0   38  112.40000   64.00000  43.1%     -    0s
H   32    64                     109.5000000   64.00000  41.6%  53.7    1s
H   39    64                     109.1000000   64.00000  41.3%  53.7    1s
H   43    64                     106.6000000   64.00000  40.0%  54.6    1s
H   63    96                      93.8000000   64.00000  31.8%  54.0    2s
H   95   128                      92.0000000   64.00000  30.4%  52.8    3s
H   97   128                      91.4000000   64.00000  30.0%  52.8    3s
H  100   128                      77.1000000   64.00000  17.0%  52.7    3s
H  109   128                      76.2000000   64.00000  16.0%  49.4    3s

Cutting planes:
  Gomory: 3
  Cover: 132
  Implied bound: 130
  Clique: 11
  MIR: 35
  StrongCG: 1
  Flow cover: 18
  Zero half: 1
  RLT: 9
  Relax-and-lift: 41

Explored 127 nodes (8164 simplex iterations) in 3.85 seconds
Thread count was 32 (of 32 available processors)

Solution count 10: 76.2 77.1 91.4 ... 3715.6

Optimal solution found (tolerance 3.00e-01)
Best objective 7.620000000000e+01, best bound 6.400000000000e+01, gap 16.0105%
